n_potions = 66;
alchemy = [4, 5, 1, 1, 3, 4, 1, 3, 1, 2, 3, 3, 3, 4, 5, 2, 5, 5, 1, 5, 2, 3, 3, 1, 5, 5, 3, 4, 3, 5, 2, 3, 2, 1, 5, 1, 1, 3, 2, 1, 1, 2, 1, 4, 3, 3, 4, 2, 3, 3, 5, 3, 3, 5, 3, 1, 2, 2, 2, 5, 4, 4, 2, 1, 2, 4];
n_days = 12;
min_potions = 5;
max_potions = 7;
min_alchemists = 5;
max_alchemists = 35;
prereqs = [|7,1
|8,6
|10,5
|11,6
|12,7
|13,8
|13,11
|16,9
|17,10
|17,11
|18,10
|18,11
|19,8
|19,11
|21,10
|23,18
|24,13
|26,23
|30,9
|32,9
|33,27
|35,9
|35,17
|35,18
|37,20
|37,30
|38,33
|39,35
|41,9
|41,17
|41,18
|43,20
|44,16
|46,37
|47,42
|48,34
|48,35
|49,30
|49,32
|50,43
|51,33
|53,47
|55,38
|57,39
|58,28
|59,55
|61,55
|62,31
|63,48
|65,59
|];
